c File: flat175_3_0.col
c
c SOURCE: Joseph Culberson (joe@cs.ualberta.ca)
c DESCRIPTION: Quasi-random coloring problem
c              generated with flatness = 0
c                             probability = 0.041
c                             known coloring = 3
c                             random seed = 1003
c              Creation Date:  Wed Feb 24 10:54:45 1999
c Maximum degree = 8 Minimum degree = 0
c COLOR VERIFICATION: Using the permuted order
c under simple greedy yields the specified
c coloring number
c Color = 3 specified partitions = 3
c p edge 175 417
c cnf created by edge2cnf
p cnf 525 1951
-1 -2 0
-1 -3 0
-2 -3 0
1 2 3 0
-4 -5 0
-4 -6 0
-5 -6 0
4 5 6 0
-7 -8 0
-7 -9 0
-8 -9 0
7 8 9 0
-10 -11 0
-10 -12 0
-11 -12 0
10 11 12 0
-13 -14 0
-13 -15 0
-14 -15 0
13 14 15 0
-16 -17 0
-16 -18 0
-17 -18 0
16 17 18 0
-19 -20 0
-19 -21 0
-20 -21 0
19 20 21 0
-22 -23 0
-22 -24 0
-23 -24 0
22 23 24 0
-25 -26 0
-25 -27 0
-26 -27 0
25 26 27 0
-28 -29 0
-28 -30 0
-29 -30 0
28 29 30 0
-31 -32 0
-31 -33 0
-32 -33 0
31 32 33 0
-34 -35 0
-34 -36 0
-35 -36 0
34 35 36 0
-37 -38 0
-37 -39 0
-38 -39 0
37 38 39 0
-40 -41 0
-40 -42 0
-41 -42 0
40 41 42 0
-43 -44 0
-43 -45 0
-44 -45 0
43 44 45 0
-46 -47 0
-46 -48 0
-47 -48 0
46 47 48 0
-49 -50 0
-49 -51 0
-50 -51 0
49 50 51 0
-52 -53 0
-52 -54 0
-53 -54 0
52 53 54 0
-55 -56 0
-55 -57 0
-56 -57 0
55 56 57 0
-58 -59 0
-58 -60 0
-59 -60 0
58 59 60 0
-61 -62 0
-61 -63 0
-62 -63 0
61 62 63 0
-64 -65 0
-64 -66 0
-65 -66 0
64 65 66 0
-67 -68 0
-67 -69 0
-68 -69 0
67 68 69 0
-70 -71 0
-70 -72 0
-71 -72 0
70 71 72 0
-73 -74 0
-73 -75 0
-74 -75 0
73 74 75 0
-76 -77 0
-76 -78 0
-77 -78 0
76 77 78 0
-79 -80 0
-79 -81 0
-80 -81 0
79 80 81 0
-82 -83 0
-82 -84 0
-83 -84 0
82 83 84 0
-85 -86 0
-85 -87 0
-86 -87 0
85 86 87 0
-88 -89 0
-88 -90 0
-89 -90 0
88 89 90 0
-91 -92 0
-91 -93 0
-92 -93 0
91 92 93 0
-94 -95 0
-94 -96 0
-95 -96 0
94 95 96 0
-97 -98 0
-97 -99 0
-98 -99 0
97 98 99 0
-100 -101 0
-100 -102 0
-101 -102 0
100 101 102 0
-103 -104 0
-103 -105 0
-104 -105 0
103 104 105 0
-106 -107 0
-106 -108 0
-107 -108 0
106 107 108 0
-109 -110 0
-109 -111 0
-110 -111 0
109 110 111 0
-112 -113 0
-112 -114 0
-113 -114 0
112 113 114 0
-115 -116 0
-115 -117 0
-116 -117 0
115 116 117 0
-118 -119 0
-118 -120 0
-119 -120 0
118 119 120 0
-121 -122 0
-121 -123 0
-122 -123 0
121 122 123 0
-124 -125 0
-124 -126 0
-125 -126 0
124 125 126 0
-127 -128 0
-127 -129 0
-128 -129 0
127 128 129 0
-130 -131 0
-130 -132 0
-131 -132 0
130 131 132 0
-133 -134 0
-133 -135 0
-134 -135 0
133 134 135 0
-136 -137 0
-136 -138 0
-137 -138 0
136 137 138 0
-139 -140 0
-139 -141 0
-140 -141 0
139 140 141 0
-142 -143 0
-142 -144 0
-143 -144 0
142 143 144 0
-145 -146 0
-145 -147 0
-146 -147 0
145 146 147 0
-148 -149 0
-148 -150 0
-149 -150 0
148 149 150 0
-151 -152 0
-151 -153 0
-152 -153 0
151 152 153 0
-154 -155 0
-154 -156 0
-155 -156 0
154 155 156 0
-157 -158 0
-157 -159 0
-158 -159 0
157 158 159 0
-160 -161 0
-160 -162 0
-161 -162 0
160 161 162 0
-163 -164 0
-163 -165 0
-164 -165 0
163 164 165 0
-166 -167 0
-166 -168 0
-167 -168 0
166 167 168 0
-169 -170 0
-169 -171 0
-170 -171 0
169 170 171 0
-172 -173 0
-172 -174 0
-173 -174 0
172 173 174 0
-175 -176 0
-175 -177 0
-176 -177 0
175 176 177 0
-178 -179 0
-178 -180 0
-179 -180 0
178 179 180 0
-181 -182 0
-181 -183 0
-182 -183 0
181 182 183 0
-184 -185 0
-184 -186 0
-185 -186 0
184 185 186 0
-187 -188 0
-187 -189 0
-188 -189 0
187 188 189 0
-190 -191 0
-190 -192 0
-191 -192 0
190 191 192 0
-193 -194 0
-193 -195 0
-194 -195 0
193 194 195 0
-196 -197 0
-196 -198 0
-197 -198 0
196 197 198 0
-199 -200 0
-199 -201 0
-200 -201 0
199 200 201 0
-202 -203 0
-202 -204 0
-203 -204 0
202 203 204 0
-205 -206 0
-205 -207 0
-206 -207 0
205 206 207 0
-208 -209 0
-208 -210 0
-209 -210 0
208 209 210 0
-211 -212 0
-211 -213 0
-212 -213 0
211 212 213 0
-214 -215 0
-214 -216 0
-215 -216 0
214 215 216 0
-217 -218 0
-217 -219 0
-218 -219 0
217 218 219 0
-220 -221 0
-220 -222 0
-221 -222 0
220 221 222 0
-223 -224 0
-223 -225 0
-224 -225 0
223 224 225 0
-226 -227 0
-226 -228 0
-227 -228 0
226 227 228 0
-229 -230 0
-229 -231 0
-230 -231 0
229 230 231 0
-232 -233 0
-232 -234 0
-233 -234 0
232 233 234 0
-235 -236 0
-235 -237 0
-236 -237 0
235 236 237 0
-238 -239 0
-238 -240 0
-239 -240 0
238 239 240 0
-241 -242 0
-241 -243 0
-242 -243 0
241 242 243 0
-244 -245 0
-244 -246 0
-245 -246 0
244 245 246 0
-247 -248 0
-247 -249 0
-248 -249 0
247 248 249 0
-250 -251 0
-250 -252 0
-251 -252 0
250 251 252 0
-253 -254 0
-253 -255 0
-254 -255 0
253 254 255 0
-256 -257 0
-256 -258 0
-257 -258 0
256 257 258 0
-259 -260 0
-259 -261 0
-260 -261 0
259 260 261 0
-262 -263 0
-262 -264 0
-263 -264 0
262 263 264 0
-265 -266 0
-265 -267 0
-266 -267 0
265 266 267 0
-268 -269 0
-268 -270 0
-269 -270 0
268 269 270 0
-271 -272 0
-271 -273 0
-272 -273 0
271 272 273 0
-274 -275 0
-274 -276 0
-275 -276 0
274 275 276 0
-277 -278 0
-277 -279 0
-278 -279 0
277 278 279 0
-280 -281 0
-280 -282 0
-281 -282 0
280 281 282 0
-283 -284 0
-283 -285 0
-284 -285 0
283 284 285 0
-286 -287 0
-286 -288 0
-287 -288 0
286 287 288 0
-289 -290 0
-289 -291 0
-290 -291 0
289 290 291 0
-292 -293 0
-292 -294 0
-293 -294 0
292 293 294 0
-295 -296 0
-295 -297 0
-296 -297 0
295 296 297 0
-298 -299 0
-298 -300 0
-299 -300 0
298 299 300 0
-301 -302 0
-301 -303 0
-302 -303 0
301 302 303 0
-304 -305 0
-304 -306 0
-305 -306 0
304 305 306 0
-307 -308 0
-307 -309 0
-308 -309 0
307 308 309 0
-310 -311 0
-310 -312 0
-311 -312 0
310 311 312 0
-313 -314 0
-313 -315 0
-314 -315 0
313 314 315 0
-316 -317 0
-316 -318 0
-317 -318 0
316 317 318 0
-319 -320 0
-319 -321 0
-320 -321 0
319 320 321 0
-322 -323 0
-322 -324 0
-323 -324 0
322 323 324 0
-325 -326 0
-325 -327 0
-326 -327 0
325 326 327 0
-328 -329 0
-328 -330 0
-329 -330 0
328 329 330 0
-331 -332 0
-331 -333 0
-332 -333 0
331 332 333 0
-334 -335 0
-334 -336 0
-335 -336 0
334 335 336 0
-337 -338 0
-337 -339 0
-338 -339 0
337 338 339 0
-340 -341 0
-340 -342 0
-341 -342 0
340 341 342 0
-343 -344 0
-343 -345 0
-344 -345 0
343 344 345 0
-346 -347 0
-346 -348 0
-347 -348 0
346 347 348 0
-349 -350 0
-349 -351 0
-350 -351 0
349 350 351 0
-352 -353 0
-352 -354 0
-353 -354 0
352 353 354 0
-355 -356 0
-355 -357 0
-356 -357 0
355 356 357 0
-358 -359 0
-358 -360 0
-359 -360 0
358 359 360 0
-361 -362 0
-361 -363 0
-362 -363 0
361 362 363 0
-364 -365 0
-364 -366 0
-365 -366 0
364 365 366 0
-367 -368 0
-367 -369 0
-368 -369 0
367 368 369 0
-370 -371 0
-370 -372 0
-371 -372 0
370 371 372 0
-373 -374 0
-373 -375 0
-374 -375 0
373 374 375 0
-376 -377 0
-376 -378 0
-377 -378 0
376 377 378 0
-379 -380 0
-379 -381 0
-380 -381 0
379 380 381 0
-382 -383 0
-382 -384 0
-383 -384 0
382 383 384 0
-385 -386 0
-385 -387 0
-386 -387 0
385 386 387 0
-388 -389 0
-388 -390 0
-389 -390 0
388 389 390 0
-391 -392 0
-391 -393 0
-392 -393 0
391 392 393 0
-394 -395 0
-394 -396 0
-395 -396 0
394 395 396 0
-397 -398 0
-397 -399 0
-398 -399 0
397 398 399 0
-400 -401 0
-400 -402 0
-401 -402 0
400 401 402 0
-403 -404 0
-403 -405 0
-404 -405 0
403 404 405 0
-406 -407 0
-406 -408 0
-407 -408 0
406 407 408 0
-409 -410 0
-409 -411 0
-410 -411 0
409 410 411 0
-412 -413 0
-412 -414 0
-413 -414 0
412 413 414 0
-415 -416 0
-415 -417 0
-416 -417 0
415 416 417 0
-418 -419 0
-418 -420 0
-419 -420 0
418 419 420 0
-421 -422 0
-421 -423 0
-422 -423 0
421 422 423 0
-424 -425 0
-424 -426 0
-425 -426 0
424 425 426 0
-427 -428 0
-427 -429 0
-428 -429 0
427 428 429 0
-430 -431 0
-430 -432 0
-431 -432 0
430 431 432 0
-433 -434 0
-433 -435 0
-434 -435 0
433 434 435 0
-436 -437 0
-436 -438 0
-437 -438 0
436 437 438 0
-439 -440 0
-439 -441 0
-440 -441 0
439 440 441 0
-442 -443 0
-442 -444 0
-443 -444 0
442 443 444 0
-445 -446 0
-445 -447 0
-446 -447 0
445 446 447 0
-448 -449 0
-448 -450 0
-449 -450 0
448 449 450 0
-451 -452 0
-451 -453 0
-452 -453 0
451 452 453 0
-454 -455 0
-454 -456 0
-455 -456 0
454 455 456 0
-457 -458 0
-457 -459 0
-458 -459 0
457 458 459 0
-460 -461 0
-460 -462 0
-461 -462 0
460 461 462 0
-463 -464 0
-463 -465 0
-464 -465 0
463 464 465 0
-466 -467 0
-466 -468 0
-467 -468 0
466 467 468 0
-469 -470 0
-469 -471 0
-470 -471 0
469 470 471 0
-472 -473 0
-472 -474 0
-473 -474 0
472 473 474 0
-475 -476 0
-475 -477 0
-476 -477 0
475 476 477 0
-478 -479 0
-478 -480 0
-479 -480 0
478 479 480 0
-481 -482 0
-481 -483 0
-482 -483 0
481 482 483 0
-484 -485 0
-484 -486 0
-485 -486 0
484 485 486 0
-487 -488 0
-487 -489 0
-488 -489 0
487 488 489 0
-490 -491 0
-490 -492 0
-491 -492 0
490 491 492 0
-493 -494 0
-493 -495 0
-494 -495 0
493 494 495 0
-496 -497 0
-496 -498 0
-497 -498 0
496 497 498 0
-499 -500 0
-499 -501 0
-500 -501 0
499 500 501 0
-502 -503 0
-502 -504 0
-503 -504 0
502 503 504 0
-505 -506 0
-505 -507 0
-506 -507 0
505 506 507 0
-508 -509 0
-508 -510 0
-509 -510 0
508 509 510 0
-511 -512 0
-511 -513 0
-512 -513 0
511 512 513 0
-514 -515 0
-514 -516 0
-515 -516 0
514 515 516 0
-517 -518 0
-517 -519 0
-518 -519 0
517 518 519 0
-520 -521 0
-520 -522 0
-521 -522 0
520 521 522 0
-523 -524 0
-523 -525 0
-524 -525 0
523 524 525 0
-7 -1 0
-8 -2 0
-9 -3 0
-178 -1 0
-179 -2 0
-180 -3 0
-271 -1 0
-272 -2 0
-273 -3 0
-313 -1 0
-314 -2 0
-315 -3 0
-352 -1 0
-353 -2 0
-354 -3 0
-415 -1 0
-416 -2 0
-417 -3 0
-436 -1 0
-437 -2 0
-438 -3 0
-475 -1 0
-476 -2 0
-477 -3 0
-31 -4 0
-32 -5 0
-33 -6 0
-382 -4 0
-383 -5 0
-384 -6 0
-511 -4 0
-512 -5 0
-513 -6 0
-85 -7 0
-86 -8 0
-87 -9 0
-190 -7 0
-191 -8 0
-192 -9 0
-202 -7 0
-203 -8 0
-204 -9 0
-298 -7 0
-299 -8 0
-300 -9 0
-523 -7 0
-524 -8 0
-525 -9 0
-121 -10 0
-122 -11 0
-123 -12 0
-154 -10 0
-155 -11 0
-156 -12 0
-196 -10 0
-197 -11 0
-198 -12 0
-277 -10 0
-278 -11 0
-279 -12 0
-301 -10 0
-302 -11 0
-303 -12 0
-331 -10 0
-332 -11 0
-333 -12 0
-418 -10 0
-419 -11 0
-420 -12 0
-466 -13 0
-467 -14 0
-468 -15 0
-436 -16 0
-437 -17 0
-438 -18 0
-142 -19 0
-143 -20 0
-144 -21 0
-157 -19 0
-158 -20 0
-159 -21 0
-310 -19 0
-311 -20 0
-312 -21 0
-502 -19 0
-503 -20 0
-504 -21 0
-61 -22 0
-62 -23 0
-63 -24 0
-208 -22 0
-209 -23 0
-210 -24 0
-235 -22 0
-236 -23 0
-237 -24 0
-250 -22 0
-251 -23 0
-252 -24 0
-274 -22 0
-275 -23 0
-276 -24 0
-421 -22 0
-422 -23 0
-423 -24 0
-514 -22 0
-515 -23 0
-516 -24 0
-160 -25 0
-161 -26 0
-162 -27 0
-307 -25 0
-308 -26 0
-309 -27 0
-469 -25 0
-470 -26 0
-471 -27 0
-49 -28 0
-50 -29 0
-51 -30 0
-403 -28 0
-404 -29 0
-405 -30 0
-418 -28 0
-419 -29 0
-420 -30 0
-481 -28 0
-482 -29 0
-483 -30 0
-85 -31 0
-86 -32 0
-87 -33 0
-109 -31 0
-110 -32 0
-111 -33 0
-316 -31 0
-317 -32 0
-318 -33 0
-325 -31 0
-326 -32 0
-327 -33 0
-70 -34 0
-71 -35 0
-72 -36 0
-250 -34 0
-251 -35 0
-252 -36 0
-358 -34 0
-359 -35 0
-360 -36 0
-367 -34 0
-368 -35 0
-369 -36 0
-433 -34 0
-434 -35 0
-435 -36 0
-472 -34 0
-473 -35 0
-474 -36 0
-505 -34 0
-506 -35 0
-507 -36 0
-241 -37 0
-242 -38 0
-243 -39 0
-277 -37 0
-278 -38 0
-279 -39 0
-358 -37 0
-359 -38 0
-360 -39 0
-394 -37 0
-395 -38 0
-396 -39 0
-517 -37 0
-518 -38 0
-519 -39 0
-169 -40 0
-170 -41 0
-171 -42 0
-259 -40 0
-260 -41 0
-261 -42 0
-361 -40 0
-362 -41 0
-363 -42 0
-445 -40 0
-446 -41 0
-447 -42 0
-490 -40 0
-491 -41 0
-492 -42 0
-208 -43 0
-209 -44 0
-210 -45 0
-304 -43 0
-305 -44 0
-306 -45 0
-331 -43 0
-332 -44 0
-333 -45 0
-349 -43 0
-350 -44 0
-351 -45 0
-487 -43 0
-488 -44 0
-489 -45 0
-64 -46 0
-65 -47 0
-66 -48 0
-178 -46 0
-179 -47 0
-180 -48 0
-277 -46 0
-278 -47 0
-279 -48 0
-97 -49 0
-98 -50 0
-99 -51 0
-151 -49 0
-152 -50 0
-153 -51 0
-217 -49 0
-218 -50 0
-219 -51 0
-247 -49 0
-248 -50 0
-249 -51 0
-325 -49 0
-326 -50 0
-327 -51 0
-460 -49 0
-461 -50 0
-462 -51 0
-133 -52 0
-134 -53 0
-135 -54 0
-247 -52 0
-248 -53 0
-249 -54 0
-346 -52 0
-347 -53 0
-348 -54 0
-301 -55 0
-302 -56 0
-303 -57 0
-508 -55 0
-509 -56 0
-510 -57 0
-511 -55 0
-512 -56 0
-513 -57 0
-223 -58 0
-224 -59 0
-225 -60 0
-238 -58 0
-239 -59 0
-240 -60 0
-265 -58 0
-266 -59 0
-267 -60 0
-382 -58 0
-383 -59 0
-384 -60 0
-394 -58 0
-395 -59 0
-396 -60 0
-424 -58 0
-425 -59 0
-426 -60 0
-127 -61 0
-128 -62 0
-129 -63 0
-373 -61 0
-374 -62 0
-375 -63 0
-448 -61 0
-449 -62 0
-450 -63 0
-472 -61 0
-473 -62 0
-474 -63 0
-490 -61 0
-491 -62 0
-492 -63 0
-148 -64 0
-149 -65 0
-150 -66 0
-340 -67 0
-341 -68 0
-342 -69 0
-355 -67 0
-356 -68 0
-357 -69 0
-403 -67 0
-404 -68 0
-405 -69 0
-442 -67 0
-443 -68 0
-444 -69 0
-286 -70 0
-287 -71 0
-288 -72 0
-463 -70 0
-464 -71 0
-465 -72 0
-484 -70 0
-485 -71 0
-486 -72 0
-136 -73 0
-137 -74 0
-138 -75 0
-181 -73 0
-182 -74 0
-183 -75 0
-280 -73 0
-281 -74 0
-282 -75 0
-427 -73 0
-428 -74 0
-429 -75 0
-199 -76 0
-200 -77 0
-201 -78 0
-229 -76 0
-230 -77 0
-231 -78 0
-307 -76 0
-308 -77 0
-309 -78 0
-145 -82 0
-146 -83 0
-147 -84 0
-241 -82 0
-242 -83 0
-243 -84 0
-316 -82 0
-317 -83 0
-318 -84 0
-409 -82 0
-410 -83 0
-411 -84 0
-418 -82 0
-419 -83 0
-420 -84 0
-457 -82 0
-458 -83 0
-459 -84 0
-91 -85 0
-92 -86 0
-93 -87 0
-115 -85 0
-116 -86 0
-117 -87 0
-208 -85 0
-209 -86 0
-210 -87 0
-367 -85 0
-368 -86 0
-369 -87 0
-103 -88 0
-104 -89 0
-105 -90 0
-151 -88 0
-152 -89 0
-153 -90 0
-157 -88 0
-158 -89 0
-159 -90 0
-391 -88 0
-392 -89 0
-393 -90 0
-454 -88 0
-455 -89 0
-456 -90 0
-190 -91 0
-191 -92 0
-192 -93 0
-322 -91 0
-323 -92 0
-324 -93 0
-403 -91 0
-404 -92 0
-405 -93 0
-469 -91 0
-470 -92 0
-471 -93 0
-484 -91 0
-485 -92 0
-486 -93 0
-505 -91 0
-506 -92 0
-507 -93 0
-112 -94 0
-113 -95 0
-114 -96 0
-292 -94 0
-293 -95 0
-294 -96 0
-481 -94 0
-482 -95 0
-483 -96 0
-106 -97 0
-107 -98 0
-108 -99 0
-121 -97 0
-122 -98 0
-123 -99 0
-220 -97 0
-221 -98 0
-222 -99 0
-301 -97 0
-302 -98 0
-303 -99 0
-466 -97 0
-467 -98 0
-468 -99 0
-103 -100 0
-104 -101 0
-105 -102 0
-235 -100 0
-236 -101 0
-237 -102 0
-319 -100 0
-320 -101 0
-321 -102 0
-388 -100 0
-389 -101 0
-390 -102 0
-463 -100 0
-464 -101 0
-465 -102 0
-484 -100 0
-485 -101 0
-486 -102 0
-208 -103 0
-209 -104 0
-210 -105 0
-298 -103 0
-299 -104 0
-300 -105 0
-166 -106 0
-167 -107 0
-168 -108 0
-175 -106 0
-176 -107 0
-177 -108 0
-307 -106 0
-308 -107 0
-309 -108 0
-424 -109 0
-425 -110 0
-426 -111 0
-523 -109 0
-524 -110 0
-525 -111 0
-169 -112 0
-170 -113 0
-171 -114 0
-349 -112 0
-350 -113 0
-351 -114 0
-406 -112 0
-407 -113 0
-408 -114 0
-148 -115 0
-149 -116 0
-150 -117 0
-343 -115 0
-344 -116 0
-345 -117 0
-397 -115 0
-398 -116 0
-399 -117 0
-439 -118 0
-440 -119 0
-441 -120 0
-202 -121 0
-203 -122 0
-204 -123 0
-289 -121 0
-290 -122 0
-291 -123 0
-361 -121 0
-362 -122 0
-363 -123 0
-193 -124 0
-194 -125 0
-195 -126 0
-472 -124 0
-473 -125 0
-474 -126 0
-490 -124 0
-491 -125 0
-492 -126 0
-184 -127 0
-185 -128 0
-186 -129 0
-277 -127 0
-278 -128 0
-279 -129 0
-289 -127 0
-290 -128 0
-291 -129 0
-292 -127 0
-293 -128 0
-294 -129 0
-421 -127 0
-422 -128 0
-423 -129 0
-436 -127 0
-437 -128 0
-438 -129 0
-136 -130 0
-137 -131 0
-138 -132 0
-190 -130 0
-191 -131 0
-192 -132 0
-298 -133 0
-299 -134 0
-300 -135 0
-373 -133 0
-374 -134 0
-375 -135 0
-388 -133 0
-389 -134 0
-390 -135 0
-397 -133 0
-398 -134 0
-399 -135 0
-460 -133 0
-461 -134 0
-462 -135 0
-514 -133 0
-515 -134 0
-516 -135 0
-217 -136 0
-218 -137 0
-219 -138 0
-355 -136 0
-356 -137 0
-357 -138 0
-397 -136 0
-398 -137 0
-399 -138 0
-253 -139 0
-254 -140 0
-255 -141 0
-310 -139 0
-311 -140 0
-312 -141 0
-319 -139 0
-320 -140 0
-321 -141 0
-496 -139 0
-497 -140 0
-498 -141 0
-193 -142 0
-194 -143 0
-195 -144 0
-232 -142 0
-233 -143 0
-234 -144 0
-235 -142 0
-236 -143 0
-237 -144 0
-457 -142 0
-458 -143 0
-459 -144 0
-514 -142 0
-515 -143 0
-516 -144 0
-211 -145 0
-212 -146 0
-213 -147 0
-262 -145 0
-263 -146 0
-264 -147 0
-346 -145 0
-347 -146 0
-348 -147 0
-463 -145 0
-464 -146 0
-465 -147 0
-298 -148 0
-299 -149 0
-300 -150 0
-406 -148 0
-407 -149 0
-408 -150 0
-493 -148 0
-494 -149 0
-495 -150 0
-238 -151 0
-239 -152 0
-240 -153 0
-307 -151 0
-308 -152 0
-309 -153 0
-481 -151 0
-482 -152 0
-483 -153 0
-484 -151 0
-485 -152 0
-486 -153 0
-184 -154 0
-185 -155 0
-186 -156 0
-508 -154 0
-509 -155 0
-510 -156 0
-199 -157 0
-200 -158 0
-201 -159 0
-394 -157 0
-395 -158 0
-396 -159 0
-496 -157 0
-497 -158 0
-498 -159 0
-205 -160 0
-206 -161 0
-207 -162 0
-340 -160 0
-341 -161 0
-342 -162 0
-361 -160 0
-362 -161 0
-363 -162 0
-388 -160 0
-389 -161 0
-390 -162 0
-184 -163 0
-185 -164 0
-186 -165 0
-499 -163 0
-500 -164 0
-501 -165 0
-190 -166 0
-191 -167 0
-192 -168 0
-229 -166 0
-230 -167 0
-231 -168 0
-322 -166 0
-323 -167 0
-324 -168 0
-484 -166 0
-485 -167 0
-486 -168 0
-511 -166 0
-512 -167 0
-513 -168 0
-211 -169 0
-212 -170 0
-213 -171 0
-307 -169 0
-308 -170 0
-309 -171 0
-334 -169 0
-335 -170 0
-336 -171 0
-430 -169 0
-431 -170 0
-432 -171 0
-502 -169 0
-503 -170 0
-504 -171 0
-331 -172 0
-332 -173 0
-333 -174 0
-187 -175 0
-188 -176 0
-189 -177 0
-193 -175 0
-194 -176 0
-195 -177 0
-223 -175 0
-224 -176 0
-225 -177 0
-226 -175 0
-227 -176 0
-228 -177 0
-364 -178 0
-365 -179 0
-366 -180 0
-367 -178 0
-368 -179 0
-369 -180 0
-214 -181 0
-215 -182 0
-216 -183 0
-430 -181 0
-431 -182 0
-432 -183 0
-313 -184 0
-314 -185 0
-315 -186 0
-337 -184 0
-338 -185 0
-339 -186 0
-415 -187 0
-416 -188 0
-417 -189 0
-436 -187 0
-437 -188 0
-438 -189 0
-475 -187 0
-476 -188 0
-477 -189 0
-478 -187 0
-479 -188 0
-480 -189 0
-199 -190 0
-200 -191 0
-201 -192 0
-289 -190 0
-290 -191 0
-291 -192 0
-343 -190 0
-344 -191 0
-345 -192 0
-235 -193 0
-236 -194 0
-237 -195 0
-208 -196 0
-209 -197 0
-210 -198 0
-343 -196 0
-344 -197 0
-345 -198 0
-466 -196 0
-467 -197 0
-468 -198 0
-469 -196 0
-470 -197 0
-471 -198 0
-505 -196 0
-506 -197 0
-507 -198 0
-280 -199 0
-281 -200 0
-282 -201 0
-412 -199 0
-413 -200 0
-414 -201 0
-205 -202 0
-206 -203 0
-207 -204 0
-463 -202 0
-464 -203 0
-465 -204 0
-517 -202 0
-518 -203 0
-519 -204 0
-283 -205 0
-284 -206 0
-285 -207 0
-286 -205 0
-287 -206 0
-288 -207 0
-400 -205 0
-401 -206 0
-402 -207 0
-454 -205 0
-455 -206 0
-456 -207 0
-502 -205 0
-503 -206 0
-504 -207 0
-511 -205 0
-512 -206 0
-513 -207 0
-436 -208 0
-437 -209 0
-438 -210 0
-511 -211 0
-512 -212 0
-513 -213 0
-310 -214 0
-311 -215 0
-312 -216 0
-319 -214 0
-320 -215 0
-321 -216 0
-340 -214 0
-341 -215 0
-342 -216 0
-235 -220 0
-236 -221 0
-237 -222 0
-256 -220 0
-257 -221 0
-258 -222 0
-331 -220 0
-332 -221 0
-333 -222 0
-424 -220 0
-425 -221 0
-426 -222 0
-466 -220 0
-467 -221 0
-468 -222 0
-334 -223 0
-335 -224 0
-336 -225 0
-382 -223 0
-383 -224 0
-384 -225 0
-469 -223 0
-470 -224 0
-471 -225 0
-475 -223 0
-476 -224 0
-477 -225 0
-307 -226 0
-308 -227 0
-309 -228 0
-328 -226 0
-329 -227 0
-330 -228 0
-379 -226 0
-380 -227 0
-381 -228 0
-385 -226 0
-386 -227 0
-387 -228 0
-493 -226 0
-494 -227 0
-495 -228 0
-256 -229 0
-257 -230 0
-258 -231 0
-334 -229 0
-335 -230 0
-336 -231 0
-523 -229 0
-524 -230 0
-525 -231 0
-262 -232 0
-263 -233 0
-264 -234 0
-355 -232 0
-356 -233 0
-357 -234 0
-424 -232 0
-425 -233 0
-426 -234 0
-463 -232 0
-464 -233 0
-465 -234 0
-493 -232 0
-494 -233 0
-495 -234 0
-451 -235 0
-452 -236 0
-453 -237 0
-457 -235 0
-458 -236 0
-459 -237 0
-517 -235 0
-518 -236 0
-519 -237 0
-241 -238 0
-242 -239 0
-243 -240 0
-274 -238 0
-275 -239 0
-276 -240 0
-472 -238 0
-473 -239 0
-474 -240 0
-478 -238 0
-479 -239 0
-480 -240 0
-331 -241 0
-332 -242 0
-333 -243 0
-379 -241 0
-380 -242 0
-381 -243 0
-511 -241 0
-512 -242 0
-513 -243 0
-253 -244 0
-254 -245 0
-255 -246 0
-256 -244 0
-257 -245 0
-258 -246 0
-346 -244 0
-347 -245 0
-348 -246 0
-364 -244 0
-365 -245 0
-366 -246 0
-394 -244 0
-395 -245 0
-396 -246 0
-409 -244 0
-410 -245 0
-411 -246 0
-415 -244 0
-416 -245 0
-417 -246 0
-496 -244 0
-497 -245 0
-498 -246 0
-313 -247 0
-314 -248 0
-315 -249 0
-355 -247 0
-356 -248 0
-357 -249 0
-466 -247 0
-467 -248 0
-468 -249 0
-364 -250 0
-365 -251 0
-366 -252 0
-523 -250 0
-524 -251 0
-525 -252 0
-412 -253 0
-413 -254 0
-414 -255 0
-262 -256 0
-263 -257 0
-264 -258 0
-298 -256 0
-299 -257 0
-300 -258 0
-388 -256 0
-389 -257 0
-390 -258 0
-415 -259 0
-416 -260 0
-417 -261 0
-271 -265 0
-272 -266 0
-273 -267 0
-334 -265 0
-335 -266 0
-336 -267 0
-349 -265 0
-350 -266 0
-351 -267 0
-370 -265 0
-371 -266 0
-372 -267 0
-460 -265 0
-461 -266 0
-462 -267 0
-391 -268 0
-392 -269 0
-393 -270 0
-358 -271 0
-359 -272 0
-360 -273 0
-382 -271 0
-383 -272 0
-384 -273 0
-421 -271 0
-422 -272 0
-423 -273 0
-502 -271 0
-503 -272 0
-504 -273 0
-403 -274 0
-404 -275 0
-405 -276 0
-484 -274 0
-485 -275 0
-486 -276 0
-349 -280 0
-350 -281 0
-351 -282 0
-379 -283 0
-380 -284 0
-381 -285 0
-406 -283 0
-407 -284 0
-408 -285 0
-352 -292 0
-353 -293 0
-354 -294 0
-370 -292 0
-371 -293 0
-372 -294 0
-352 -295 0
-353 -296 0
-354 -297 0
-445 -295 0
-446 -296 0
-447 -297 0
-382 -298 0
-383 -299 0
-384 -300 0
-415 -298 0
-416 -299 0
-417 -300 0
-469 -298 0
-470 -299 0
-471 -300 0
-388 -301 0
-389 -302 0
-390 -303 0
-460 -301 0
-461 -302 0
-462 -303 0
-439 -304 0
-440 -305 0
-441 -306 0
-457 -304 0
-458 -305 0
-459 -306 0
-400 -307 0
-401 -308 0
-402 -309 0
-361 -310 0
-362 -311 0
-363 -312 0
-391 -310 0
-392 -311 0
-393 -312 0
-403 -310 0
-404 -311 0
-405 -312 0
-463 -310 0
-464 -311 0
-465 -312 0
-406 -313 0
-407 -314 0
-408 -315 0
-415 -313 0
-416 -314 0
-417 -315 0
-397 -316 0
-398 -317 0
-399 -318 0
-475 -316 0
-476 -317 0
-477 -318 0
-478 -319 0
-479 -320 0
-480 -321 0
-487 -319 0
-488 -320 0
-489 -321 0
-379 -322 0
-380 -323 0
-381 -324 0
-382 -322 0
-383 -323 0
-384 -324 0
-367 -325 0
-368 -326 0
-369 -327 0
-412 -325 0
-413 -326 0
-414 -327 0
-427 -325 0
-428 -326 0
-429 -327 0
-493 -325 0
-494 -326 0
-495 -327 0
-355 -328 0
-356 -329 0
-357 -330 0
-403 -328 0
-404 -329 0
-405 -330 0
-427 -328 0
-428 -329 0
-429 -330 0
-481 -331 0
-482 -332 0
-483 -333 0
-340 -334 0
-341 -335 0
-342 -336 0
-427 -334 0
-428 -335 0
-429 -336 0
-412 -337 0
-413 -338 0
-414 -339 0
-433 -337 0
-434 -338 0
-435 -339 0
-475 -340 0
-476 -341 0
-477 -342 0
-358 -343 0
-359 -344 0
-360 -345 0
-448 -346 0
-449 -347 0
-450 -348 0
-463 -346 0
-464 -347 0
-465 -348 0
-451 -349 0
-452 -350 0
-453 -351 0
-517 -349 0
-518 -350 0
-519 -351 0
-379 -352 0
-380 -353 0
-381 -354 0
-403 -352 0
-404 -353 0
-405 -354 0
-475 -352 0
-476 -353 0
-477 -354 0
-376 -358 0
-377 -359 0
-378 -360 0
-433 -361 0
-434 -362 0
-435 -363 0
-442 -361 0
-443 -362 0
-444 -363 0
-484 -361 0
-485 -362 0
-486 -363 0
-487 -361 0
-488 -362 0
-489 -363 0
-478 -364 0
-479 -365 0
-480 -366 0
-484 -364 0
-485 -365 0
-486 -366 0
-436 -370 0
-437 -371 0
-438 -372 0
-478 -373 0
-479 -374 0
-480 -375 0
-481 -373 0
-482 -374 0
-483 -375 0
-520 -373 0
-521 -374 0
-522 -375 0
-418 -376 0
-419 -377 0
-420 -378 0
-433 -376 0
-434 -377 0
-435 -378 0
-481 -376 0
-482 -377 0
-483 -378 0
-469 -379 0
-470 -380 0
-471 -381 0
-469 -382 0
-470 -383 0
-471 -384 0
-448 -385 0
-449 -386 0
-450 -387 0
-496 -385 0
-497 -386 0
-498 -387 0
-424 -388 0
-425 -389 0
-426 -390 0
-430 -391 0
-431 -392 0
-432 -393 0
-478 -391 0
-479 -392 0
-480 -393 0
-475 -394 0
-476 -395 0
-477 -396 0
-487 -394 0
-488 -395 0
-489 -396 0
-406 -397 0
-407 -398 0
-408 -399 0
-451 -400 0
-452 -401 0
-453 -402 0
-460 -403 0
-461 -404 0
-462 -405 0
-496 -415 0
-497 -416 0
-498 -417 0
-514 -418 0
-515 -419 0
-516 -420 0
-448 -421 0
-449 -422 0
-450 -423 0
-445 -436 0
-446 -437 0
-447 -438 0
-499 -442 0
-500 -443 0
-501 -444 0
-502 -445 0
-503 -446 0
-504 -447 0
-481 -448 0
-482 -449 0
-483 -450 0
-502 -448 0
-503 -449 0
-504 -450 0
-523 -454 0
-524 -455 0
-525 -456 0
-466 -457 0
-467 -458 0
-468 -459 0
-496 -457 0
-497 -458 0
-498 -459 0
-487 -466 0
-488 -467 0
-489 -468 0
-496 -469 0
-497 -470 0
-498 -471 0
-487 -478 0
-488 -479 0
-489 -480 0
-520 -487 0
-521 -488 0
-522 -489 0
-508 -493 0
-509 -494 0
-510 -495 0
-511 -496 0
-512 -497 0
-513 -498 0
-520 -502 0
-521 -503 0
-522 -504 0
